clear
variable Nprint equal 1000 
variable Nrun equal 100000000
variable temperature equal 305.0

units real
atom_style full

pair_style lj/charmm/coul/long 10.0 12.0
bond_style harmonic
angle_style charmm
dihedral_style charmm
improper_style harmonic
special_bonds charmm
kspace_style pppm 1.0e-4


read_data thing.lammps

neighbor 2.0 bin 


reset_timestep 0
variable ke equal ke
variable enthalpy equal enthalpy
variable pe equal pe
variable step equal step
variable temp equal temp
variable press equal press
variable vol equal vol

variable lx equal lx
variable ly equal ly
variable lz equal lz

timestep 1.0

fix 11 all shake 0.0001 10 10000 b 9 a 1
fix 3 all print ${Nprint} "${step} ${pe} ${press} ${temp} ${lx} ${ly} ${lz}" file system.log screen no
fix 4 all npt temp ${temperature} ${temperature} 10.0 aniso 1.0 1.0 100.0
fix 5 all momentum 1 linear 1 1 1
thermo ${Nprint}
dump d1 all dcd 5000 trajectory.dcd
#dump d2 all custom 40000 trajectory.lammps id type xu yu zu
#dump_modify d2 format line "%d %d %.3f %.3f %.3f" append yes 

run 10000

unfix 4
fix 6 all npt temp ${temperature} ${temperature} 1.0 aniso 1.0 1.0 50.0

run ${Nrun}

write_restart restartfile
